WARNING: for repeatability, setting FPU to use double precision
============================[ Problem Statistics ]=============================
|                                                                             |
|  Number of variables:            50                                         |
|  Number of clauses:             218                                         |
|  Parse time:                   0.00 s                                       |
|                                                                             |
============================[ Search Statistics ]==============================
| Conflicts |          ORIGINAL         |          LEARNT          | Progress |
|           |    Vars  Clauses Literals |    Limit  Clauses Lit/Cl |          |
===============================================================================
===============================================================================
restarts              : 1
conflicts             : 54             (36610 /sec)
decisions             : 71             (0.00 % random) (48136 /sec)
propagations          : 844            (572203 /sec)
conflict literals     : 212            (19.08 % deleted)
Memory used           : 20.00 MB
CPU time              : 0.001475 s

SATISFIABLE
